; SPDX-License-Identifier: MPL-2.0
; Copyright (c) 2026 The RIINA Authors.
; Auto-generated from 02_FORMAL/coq/properties/NonInterference_v2.v (50 validations)
; Generated by scripts/generate-full-stack.py
;
; Translation Validation for NonInterference_v2
; Layer 9: Verifies compiler backend preserves formal semantics.
; Each assertion checks source IR ≡ target code for a proven property.

(set-logic QF_LIA)
(set-option :produce-models true)

; IR node representation
(declare-sort IRNode 0)
(declare-sort TargetNode 0)

; is_low: source semantics (matches Coq)
(declare-fun source_is_low () Bool)
(declare-fun target_is_low () Bool)
(assert (= source_is_low target_is_low))

; is_low_dec: source semantics (matches Coq)
(declare-fun source_is_low_dec () Bool)
(declare-fun target_is_low_dec () Bool)
(assert (= source_is_low_dec target_is_low_dec))

; closed_expr: source semantics (matches Coq)
(declare-fun source_closed_expr () Bool)
(declare-fun target_closed_expr () Bool)
(assert (= source_closed_expr target_closed_expr))

; stores_agree_low_fo: source semantics (matches Coq)
(declare-fun source_stores_agree_low_fo () Bool)
(declare-fun target_stores_agree_low_fo () Bool)
(assert (= source_stores_agree_low_fo target_stores_agree_low_fo))

; val_rel_at_type_n: source semantics (matches Coq)
(declare-fun source_val_rel_at_type_n () Bool)
(declare-fun target_val_rel_at_type_n () Bool)
(assert (= source_val_rel_at_type_n target_val_rel_at_type_n))

; store_vals_rel: source semantics (matches Coq)
(declare-fun source_store_vals_rel () Bool)
(declare-fun target_store_vals_rel () Bool)
(assert (= source_store_vals_rel target_store_vals_rel))

; combined_step_up: source semantics (matches Coq)
(declare-fun source_combined_step_up () Bool)
(declare-fun target_combined_step_up () Bool)
(assert (= source_combined_step_up target_combined_step_up))

; val_rel: source semantics (matches Coq)
(declare-fun source_val_rel () Bool)
(declare-fun target_val_rel () Bool)
(assert (= source_val_rel target_val_rel))

; store_rel: source semantics (matches Coq)
(declare-fun source_store_rel () Bool)
(declare-fun target_store_rel () Bool)
(assert (= source_store_rel target_store_rel))

; exp_rel: source semantics (matches Coq)
(declare-fun source_exp_rel () Bool)
(declare-fun target_exp_rel () Bool)
(assert (= source_exp_rel target_exp_rel))

; is_low_dec_correct: translation preserves property (matches Coq: Lemma)
(declare-fun source_is_low_dec_correct () Bool)
(declare-fun target_is_low_dec_correct () Bool)
(assert (= source_is_low_dec_correct target_is_low_dec_correct))

; typing_nil_implies_closed: translation preserves property (matches Coq: Lemma)
(declare-fun source_typing_nil_implies_closed () Bool)
(declare-fun target_typing_nil_implies_closed () Bool)
(assert (= source_typing_nil_implies_closed target_typing_nil_implies_closed))

; val_rel_at_type_fo_refl: translation preserves property (matches Coq: Lemma)
(declare-fun source_val_rel_at_type_fo_refl () Bool)
(declare-fun target_val_rel_at_type_fo_refl () Bool)
(assert (= source_val_rel_at_type_fo_refl target_val_rel_at_type_fo_refl))

; val_rel_at_type_fo_trivial: translation preserves property (matches Coq: Lemma)
(declare-fun source_val_rel_at_type_fo_trivial () Bool)
(declare-fun target_val_rel_at_type_fo_trivial () Bool)
(assert (= source_val_rel_at_type_fo_trivial target_val_rel_at_type_fo_trivial))

; val_rel_at_type_n_S: translation preserves property (matches Coq: Lemma)
(declare-fun source_val_rel_at_type_n_S () Bool)
(declare-fun target_val_rel_at_type_n_S () Bool)
(assert (= source_val_rel_at_type_n_S target_val_rel_at_type_n_S))

; val_rel_n_0_unfold: translation preserves property (matches Coq: Lemma)
(declare-fun source_val_rel_n_0_unfold () Bool)
(declare-fun target_val_rel_n_0_unfold () Bool)
(assert (= source_val_rel_n_0_unfold target_val_rel_n_0_unfold))

; val_rel_n_S_unfold: translation preserves property (matches Coq: Lemma)
(declare-fun source_val_rel_n_S_unfold () Bool)
(declare-fun target_val_rel_n_S_unfold () Bool)
(assert (= source_val_rel_n_S_unfold target_val_rel_n_S_unfold))

; val_rel_n_SS_unfold: translation preserves property (matches Coq: Lemma)
(declare-fun source_val_rel_n_SS_unfold () Bool)
(declare-fun target_val_rel_n_SS_unfold () Bool)
(assert (= source_val_rel_n_SS_unfold target_val_rel_n_SS_unfold))

; store_rel_n_0_unfold: translation preserves property (matches Coq: Lemma)
(declare-fun source_store_rel_n_0_unfold () Bool)
(declare-fun target_store_rel_n_0_unfold () Bool)
(assert (= source_store_rel_n_0_unfold target_store_rel_n_0_unfold))

; store_rel_n_S_unfold: translation preserves property (matches Coq: Lemma)
(declare-fun source_store_rel_n_S_unfold () Bool)
(declare-fun target_store_rel_n_S_unfold () Bool)
(assert (= source_store_rel_n_S_unfold target_store_rel_n_S_unfold))

; val_rel_at_type_fo_equiv: translation preserves property (matches Coq: Lemma)
(declare-fun source_val_rel_at_type_fo_equiv () Bool)
(declare-fun target_val_rel_at_type_fo_equiv () Bool)
(assert (= source_val_rel_at_type_fo_equiv target_val_rel_at_type_fo_equiv))

; val_rel_n_to_0: translation preserves property (matches Coq: Lemma)
(declare-fun source_val_rel_n_to_0 () Bool)
(declare-fun target_val_rel_n_to_0 () Bool)
(assert (= source_val_rel_n_to_0 target_val_rel_n_to_0))

; val_rel_n_step_up_fo: translation preserves property (matches Coq: Lemma)
(declare-fun source_val_rel_n_step_up_fo () Bool)
(declare-fun target_val_rel_n_step_up_fo () Bool)
(assert (= source_val_rel_n_step_up_fo target_val_rel_n_step_up_fo))

; val_rel_n_mono_fo: translation preserves property (matches Coq: Lemma)
(declare-fun source_val_rel_n_mono_fo () Bool)
(declare-fun target_val_rel_n_mono_fo () Bool)
(assert (= source_val_rel_n_mono_fo target_val_rel_n_mono_fo))

; val_rel_n_fo_equiv: translation preserves property (matches Coq: Lemma)
(declare-fun source_val_rel_n_fo_equiv () Bool)
(declare-fun target_val_rel_n_fo_equiv () Bool)
(assert (= source_val_rel_n_fo_equiv target_val_rel_n_fo_equiv))

; val_rel_n_value: translation preserves property (matches Coq: Lemma)
(declare-fun source_val_rel_n_value () Bool)
(declare-fun target_val_rel_n_value () Bool)
(assert (= source_val_rel_n_value target_val_rel_n_value))

; val_rel_n_closed: translation preserves property (matches Coq: Lemma)
(declare-fun source_val_rel_n_closed () Bool)
(declare-fun target_val_rel_n_closed () Bool)
(assert (= source_val_rel_n_closed target_val_rel_n_closed))

; val_rel_n_typing: translation preserves property (matches Coq: Lemma)
(declare-fun source_val_rel_n_typing () Bool)
(declare-fun target_val_rel_n_typing () Bool)
(assert (= source_val_rel_n_typing target_val_rel_n_typing))

; val_rel_n_prod_structure: translation preserves property (matches Coq: Lemma)
(declare-fun source_val_rel_n_prod_structure () Bool)
(declare-fun target_val_rel_n_prod_structure () Bool)
(assert (= source_val_rel_n_prod_structure target_val_rel_n_prod_structure))

; val_rel_n_bool_structure: translation preserves property (matches Coq: Lemma)
(declare-fun source_val_rel_n_bool_structure () Bool)
(declare-fun target_val_rel_n_bool_structure () Bool)
(assert (= source_val_rel_n_bool_structure target_val_rel_n_bool_structure))

; val_rel_n_sum_structure: translation preserves property (matches Coq: Lemma)
(declare-fun source_val_rel_n_sum_structure () Bool)
(declare-fun target_val_rel_n_sum_structure () Bool)
(assert (= source_val_rel_n_sum_structure target_val_rel_n_sum_structure))

; val_rel_n_mono: translation preserves property (matches Coq: Lemma)
(declare-fun source_val_rel_n_mono () Bool)
(declare-fun target_val_rel_n_mono () Bool)
(assert (= source_val_rel_n_mono target_val_rel_n_mono))

; store_rel_n_mono: translation preserves property (matches Coq: Lemma)
(declare-fun source_store_rel_n_mono () Bool)
(declare-fun target_store_rel_n_mono () Bool)
(assert (= source_store_rel_n_mono target_store_rel_n_mono))

; pair_typing_pure_inv: translation preserves property (matches Coq: Lemma)
(declare-fun source_pair_typing_pure_inv () Bool)
(declare-fun target_pair_typing_pure_inv () Bool)
(assert (= source_pair_typing_pure_inv target_pair_typing_pure_inv))

; exp_rel_step1_fst: translation preserves property (matches Coq: Lemma)
(declare-fun source_exp_rel_step1_fst () Bool)
(declare-fun target_exp_rel_step1_fst () Bool)
(assert (= source_exp_rel_step1_fst target_exp_rel_step1_fst))

; exp_rel_step1_snd: translation preserves property (matches Coq: Lemma)
(declare-fun source_exp_rel_step1_snd () Bool)
(declare-fun target_exp_rel_step1_snd () Bool)
(assert (= source_exp_rel_step1_snd target_exp_rel_step1_snd))

; exp_rel_step1_if: translation preserves property (matches Coq: Lemma)
(declare-fun source_exp_rel_step1_if () Bool)
(declare-fun target_exp_rel_step1_if () Bool)
(assert (= source_exp_rel_step1_if target_exp_rel_step1_if))

; exp_rel_step1_case: translation preserves property (matches Coq: Lemma)
(declare-fun source_exp_rel_step1_case () Bool)
(declare-fun target_exp_rel_step1_case () Bool)
(assert (= source_exp_rel_step1_case target_exp_rel_step1_case))

; exp_rel_step1_let: translation preserves property (matches Coq: Lemma)
(declare-fun source_exp_rel_step1_let () Bool)
(declare-fun target_exp_rel_step1_let () Bool)
(assert (= source_exp_rel_step1_let target_exp_rel_step1_let))

; exp_rel_step1_handle: translation preserves property (matches Coq: Lemma)
(declare-fun source_exp_rel_step1_handle () Bool)
(declare-fun target_exp_rel_step1_handle () Bool)
(assert (= source_exp_rel_step1_handle target_exp_rel_step1_handle))

; exp_rel_step1_app: translation preserves property (matches Coq: Lemma)
(declare-fun source_exp_rel_step1_app () Bool)
(declare-fun target_exp_rel_step1_app () Bool)
(assert (= source_exp_rel_step1_app target_exp_rel_step1_app))

; preservation_store_wf: translation preserves property (matches Coq: Lemma)
(declare-fun source_preservation_store_wf () Bool)
(declare-fun target_preservation_store_wf () Bool)
(assert (= source_preservation_store_wf target_preservation_store_wf))

; store_wf_to_has_values: translation preserves property (matches Coq: Lemma)
(declare-fun source_store_wf_to_has_values () Bool)
(declare-fun target_store_wf_to_has_values () Bool)
(assert (= source_store_wf_to_has_values target_store_wf_to_has_values))

; preservation_store_has_values: translation preserves property (matches Coq: Lemma)
(declare-fun source_preservation_store_has_values () Bool)
(declare-fun target_preservation_store_has_values () Bool)
(assert (= source_preservation_store_has_values target_preservation_store_has_values))

; val_rel_at_type_fo_step_invariant: translation preserves property (matches Coq: Lemma)
(declare-fun source_val_rel_at_type_fo_step_invariant () Bool)
(declare-fun target_val_rel_at_type_fo_step_invariant () Bool)
(assert (= source_val_rel_at_type_fo_step_invariant target_val_rel_at_type_fo_step_invariant))

; val_rel_at_type_step_up_with_IH: translation preserves property (matches Coq: Lemma)
(declare-fun source_val_rel_at_type_step_up_with_IH () Bool)
(declare-fun target_val_rel_at_type_step_up_with_IH () Bool)
(assert (= source_val_rel_at_type_step_up_with_IH target_val_rel_at_type_step_up_with_IH))

; combined_step_up_val_wrap: translation preserves property (matches Coq: Lemma)
(declare-fun source_combined_step_up_val_wrap () Bool)
(declare-fun target_combined_step_up_val_wrap () Bool)
(assert (= source_combined_step_up_val_wrap target_combined_step_up_val_wrap))

; store_rel_n_step_up_from_IH: translation preserves property (matches Coq: Lemma)
(declare-fun source_store_rel_n_step_up_from_IH () Bool)
(declare-fun target_store_rel_n_step_up_from_IH () Bool)
(assert (= source_store_rel_n_step_up_from_IH target_store_rel_n_step_up_from_IH))

; store_rel_n_step_up_with_val_IH: translation preserves property (matches Coq: Lemma)
(declare-fun source_store_rel_n_step_up_with_val_IH () Bool)
(declare-fun target_store_rel_n_step_up_with_val_IH () Bool)
(assert (= source_store_rel_n_step_up_with_val_IH target_store_rel_n_step_up_with_val_IH))

; combined_step_up_all: translation preserves property (matches Coq: Theorem)
(declare-fun source_combined_step_up_all () Bool)
(declare-fun target_combined_step_up_all () Bool)
(assert (= source_combined_step_up_all target_combined_step_up_all))

; val_rel_n_step_up_by_type: translation preserves property (matches Coq: Lemma)
(declare-fun source_val_rel_n_step_up_by_type () Bool)
(declare-fun target_val_rel_n_step_up_by_type () Bool)
(assert (= source_val_rel_n_step_up_by_type target_val_rel_n_step_up_by_type))

; val_rel_n_step_up: translation preserves property (matches Coq: Lemma)
(declare-fun source_val_rel_n_step_up () Bool)
(declare-fun target_val_rel_n_step_up () Bool)
(assert (= source_val_rel_n_step_up target_val_rel_n_step_up))

; store_rel_n_step_up: translation preserves property (matches Coq: Lemma)
(declare-fun source_store_rel_n_step_up () Bool)
(declare-fun target_store_rel_n_step_up () Bool)
(assert (= source_store_rel_n_step_up target_store_rel_n_step_up))

; store_vals_rel_mono: translation preserves property (matches Coq: Lemma)
(declare-fun source_store_vals_rel_mono () Bool)
(declare-fun target_store_vals_rel_mono () Bool)
(assert (= source_store_vals_rel_mono target_store_vals_rel_mono))

; store_vals_rel_step_up: translation preserves property (matches Coq: Lemma)
(declare-fun source_store_vals_rel_step_up () Bool)
(declare-fun target_store_vals_rel_step_up () Bool)
(assert (= source_store_vals_rel_step_up target_store_vals_rel_step_up))

; exp_rel_n_base: translation preserves property (matches Coq: Lemma)
(declare-fun source_exp_rel_n_base () Bool)
(declare-fun target_exp_rel_n_base () Bool)
(assert (= source_exp_rel_n_base target_exp_rel_n_base))

; val_rel_n_0_unit: translation preserves property (matches Coq: Lemma)
(declare-fun source_val_rel_n_0_unit () Bool)
(declare-fun target_val_rel_n_0_unit () Bool)
(assert (= source_val_rel_n_0_unit target_val_rel_n_0_unit))

; val_rel_n_unit: translation preserves property (matches Coq: Lemma)
(declare-fun source_val_rel_n_unit () Bool)
(declare-fun target_val_rel_n_unit () Bool)
(assert (= source_val_rel_n_unit target_val_rel_n_unit))

; exp_rel_n_unit: translation preserves property (matches Coq: Lemma)
(declare-fun source_exp_rel_n_unit () Bool)
(declare-fun target_exp_rel_n_unit () Bool)
(assert (= source_exp_rel_n_unit target_exp_rel_n_unit))

; val_rel_at_type_TFn_step_0_bridge: translation preserves property (matches Coq: Lemma)
(declare-fun source_val_rel_at_type_TFn_step_0_bridge () Bool)
(declare-fun target_val_rel_at_type_TFn_step_0_bridge () Bool)
(assert (= source_val_rel_at_type_TFn_step_0_bridge target_val_rel_at_type_TFn_step_0_bridge))

; Verify all translation validations are satisfiable
(check-sat)
(exit)
